ampl/minesweeper5.dat
# Problem from Gecode/examples/minesweeper.cc  problem 5

param r := 10;
param c := 10;
param game: 1 2 3 4 5 6 7 8 9 10 :=
    1  . 2 1 . 2 . 2 . . . 
    2  . 4 . . 3 . . . 5 3 
    3  . . . 4 . 4 4 . . 3 
    4  4 . 4 . . 5 . 6 . . 
    5  . . 4 5 . . . . 5 4 
    6  3 4 . . . . 5 5 . . 
    7  . . 4 . 4 . . 5 . 5 
    8  2 . . 3 3 . 6 . . . 
    9  3 6 . . . 3 . . 4 . 
   10  . . . 4 . 2 . 2 1 . 
;
