essence_savile_row/minesweeper5.param
language ESSENCE' 1.0
$ Problem from Gecode/examples/minesweeper.cc  problem 5
letting r be 10
letting c be 10
letting game be [
      [-1,2,1,-1,2,-1,2,-1,-1,-1],
      [-1,4,-1,-1,3,-1,-1,-1,5,3],
      [-1,-1,-1,4,-1,4,4,-1,-1,3],
      [4,-1,4,-1,-1,5,-1,6,-1,-1],
      [-1,-1,4,5,-1,-1,-1,-1,5,4],
      [3,4,-1,-1,-1,-1,5,5,-1,-1],
      [-1,-1,4,-1,4,-1,-1,5,-1,5],
      [2,-1,-1,3,3,-1,6,-1,-1,-1],
      [3,6,-1,-1,-1,3,-1,-1,4,-1],
      [-1,-1,-1,4,-1,2,-1,2,1,-1]
    ]

